c n orig vars 240
p cnf 602 1091
-378 0
-241 595 0
-241 596 0
241 -595 -596 0
-242 444 0
-242 443 0
242 -444 -443 0
-243 405 0
-243 406 0
243 -405 -406 0
-244 280 0
-244 281 0
244 -280 -281 0
-245 249 0
-245 248 0
245 -249 -248 0
-246 245 0
-246 244 0
-246 243 0
-246 242 0
-246 241 0
246 -245 -244 -243 -242 -241 0
-247 246 0
247 -246 0
-248 285 0
-248 282 0
248 -285 -282 0
-249 345 0
-249 344 0
249 -345 -344 0
250 -562 0
250 -17 0
-250 562 17 0
251 -562 0
251 -20 0
-251 562 20 0
252 -415 0
252 -13 0
-252 415 13 0
253 -415 0
253 -16 0
-253 415 16 0
254 -411 0
254 -1 0
-254 411 1 0
255 -411 0
255 -14 0
-255 411 14 0
256 -430 0
256 -15 0
-256 430 15 0
257 -430 0
257 -18 0
-257 430 18 0
-258 256 0
-258 257 0
258 -256 -257 0
-259 250 0
-259 251 0
259 -250 -251 0
-260 268 0
-260 269 0
260 -268 -269 0
-261 357 0
-261 356 0
261 -357 -356 0
-262 260 0
-262 261 0
262 -260 -261 0
-263 359 0
-263 358 0
263 -359 -358 0
-264 262 0
-264 263 0
264 -262 -263 0
-265 361 0
-265 360 0
265 -361 -360 0
266 -114 0
266 -155 0
-266 114 155 0
267 -114 0
267 -104 0
-267 114 104 0
268 -494 0
268 -103 0
-268 494 103 0
269 -494 0
269 -70 0
-269 494 70 0
-270 532 0
-270 529 0
270 -532 -529 0
271 -270 0
271 -218 0
-271 270 218 0
-272 577 0
-272 582 0
272 -577 -582 0
273 -272 0
273 -215 0
-273 272 215 0
274 -272 0
274 -217 0
-274 272 217 0
275 -272 0
275 -216 0
-275 272 216 0
-276 279 0
-276 278 0
276 -279 -278 0
277 -276 0
277 -211 0
-277 276 211 0
278 -212 0
278 -214 0
-278 212 214 0
279 -212 0
279 -213 0
-279 212 213 0
-280 288 0
-280 289 0
280 -288 -289 0
-281 402 0
-281 403 0
281 -402 -403 0
282 -283 0
282 -106 0
-282 283 106 0
283 -517 0
283 -204 0
-283 517 204 0
284 -514 0
284 -200 0
-284 514 200 0
285 -283 0
285 -111 0
-285 283 111 0
286 -284 0
286 -109 0
-286 284 109 0
287 -284 0
287 -112 0
-287 284 112 0
-288 540 0
-288 539 0
288 -540 -539 0
-289 548 0
-289 547 0
289 -548 -547 0
290 -296 0
290 -3 0
-290 296 3 0
291 -369 0
291 -35 0
-291 369 35 0
292 -291 0
292 -4 0
-292 291 4 0
293 -291 0
293 -11 0
-293 291 11 0
294 -299 0
294 -227 0
-294 299 227 0
295 -299 0
295 -226 0
-295 299 226 0
296 -369 0
296 -34 0
-296 369 34 0
297 -296 0
297 -225 0
-297 296 225 0
298 -598 0
298 -228 0
-298 598 228 0
299 -369 0
299 -33 0
-299 369 33 0
-300 413 0
-300 416 0
300 -413 -416 0
301 -462 0
301 -120 0
-301 462 120 0
302 -561 0
302 -119 0
-302 561 119 0
-303 301 0
-303 414 0
303 -301 -414 0
304 -456 0
304 -130 0
-304 456 130 0
305 -561 0
305 -131 0
-305 561 131 0
306 -458 0
306 -128 0
-306 458 128 0
307 -456 0
307 -129 0
-307 456 129 0
308 -459 0
308 -126 0
-308 459 126 0
309 -458 0
309 -127 0
-309 458 127 0
310 -372 0
310 -63 0
-310 372 63 0
311 -372 0
311 -64 0
-311 372 64 0
312 -370 0
312 -61 0
-312 370 61 0
313 -370 0
313 -62 0
-313 370 62 0
-314 317 0
-314 316 0
314 -317 -316 0
315 -314 0
315 -60 0
-315 314 60 0
316 -319 0
316 -58 0
-316 319 58 0
317 -319 0
317 -59 0
-317 319 59 0
-318 552 0
-318 346 0
-318 412 0
318 -552 -346 -412 0
319 -318 0
319 -27 0
-319 318 27 0
-320 322 0
-320 323 0
320 -322 -323 0
-321 399 0
-321 400 0
321 -399 -400 0
322 -563 0
322 -56 0
-322 563 56 0
323 -563 0
323 -43 0
-323 563 43 0
387 -394 0
387 -171 0
-387 394 171 0
-388 395 0
-388 396 0
388 -395 -396 0
326 -315 0
326 -54 0
-326 315 54 0
327 -315 0
327 -57 0
-327 315 57 0
328 -332 0
328 -168 0
-328 332 168 0
329 -332 0
329 -169 0
-329 332 169 0
-330 387 0
-330 393 0
330 -387 -393 0
-331 330 0
-331 388 0
331 -330 -388 0
332 -335 0
332 -166 0
-332 335 166 0
333 -492 0
333 -167 0
-333 492 167 0
-334 329 0
-334 328 0
334 -329 -328 0
-335 426 0
-335 242 0
335 -426 -242 0
336 -514 0
336 -209 0
-336 514 209 0
337 -336 0
337 -110 0
-337 336 110 0
338 -336 0
338 -115 0
-338 336 115 0
339 -514 0
339 -208 0
-339 514 208 0
340 -339 0
340 -116 0
-340 339 116 0
341 -339 0
341 -113 0
-341 339 113 0
-342 338 0
-342 337 0
342 -338 -337 0
-343 341 0
-343 340 0
343 -341 -340 0
-344 286 0
-344 287 0
344 -286 -287 0
-345 343 0
-345 342 0
345 -343 -342 0
-346 264 0
-346 265 0
346 -264 -265 0
347 -346 0
347 -95 0
-347 346 95 0
-348 468 0
-348 467 0
348 -468 -467 0
349 -348 0
349 -96 0
-349 348 96 0
-350 353 0
-350 352 0
350 -353 -352 0
351 -350 0
351 -19 0
-351 350 19 0
352 -347 0
352 -21 0
-352 347 21 0
353 -347 0
353 -22 0
-353 347 22 0
354 -348 0
354 -94 0
-354 348 94 0
355 -348 0
355 -93 0
-355 348 93 0
356 -495 0
356 -72 0
-356 495 72 0
357 -495 0
357 -71 0
-357 495 71 0
358 -497 0
358 -74 0
-358 497 74 0
359 -497 0
359 -73 0
-359 497 73 0
360 -398 0
360 -76 0
-360 398 76 0
361 -398 0
361 -75 0
-361 398 75 0
-362 445 0
-362 446 0
362 -445 -446 0
-363 365 0
-363 364 0
363 -365 -364 0
364 -501 0
364 -68 0
-364 501 68 0
365 -501 0
365 -77 0
-365 501 77 0
-366 311 0
-366 310 0
366 -311 -310 0
-367 313 0
-367 312 0
367 -313 -312 0
-368 426 0
-368 552 0
-368 412 0
368 -426 -552 -412 0
-369 366 0
-369 367 0
369 -366 -367 0
370 -371 0
370 -30 0
-370 371 30 0
-371 374 0
-371 375 0
371 -374 -375 0
372 -371 0
372 -31 0
-372 371 31 0
373 -368 0
373 -67 0
-373 368 67 0
374 -373 0
374 -66 0
-374 373 66 0
375 -373 0
375 -65 0
-375 373 65 0
-376 478 0
-376 477 0
376 -478 -477 0
-377 480 0
-377 479 0
377 -480 -479 0
-378 247 0
378 -247 0
379 -380 0
379 -99 0
-379 380 99 0
-380 383 0
-380 384 0
380 -383 -384 0
381 -380 0
381 -100 0
-381 380 100 0
382 -346 0
382 -97 0
-382 346 97 0
383 -382 0
383 -98 0
-383 382 98 0
384 -382 0
384 -91 0
-384 382 91 0
-385 376 0
-385 377 0
385 -376 -377 0
-386 474 0
-386 473 0
386 -474 -473 0
324 -569 0
324 -52 0
-324 569 52 0
325 -569 0
325 -55 0
-325 569 55 0
389 -334 0
389 -135 0
-389 334 135 0
-390 391 0
-390 392 0
390 -391 -392 0
391 -397 0
391 -174 0
-391 397 174 0
392 -397 0
392 -138 0
-392 397 138 0
393 -394 0
393 -170 0
-393 394 170 0
394 -334 0
394 -132 0
-394 334 132 0
395 -389 0
395 -173 0
-395 389 173 0
396 -389 0
396 -172 0
-396 389 172 0
397 -335 0
397 -139 0
-397 335 139 0
398 -500 0
398 -133 0
-398 500 133 0
399 -565 0
399 -42 0
-399 565 42 0
400 -565 0
400 -210 0
-400 565 210 0
401 -331 0
401 -136 0
-401 331 136 0
402 -404 0
402 -9 0
-402 404 9 0
403 -404 0
403 -12 0
-403 404 12 0
404 -390 0
404 -175 0
-404 390 175 0
-405 407 0
-405 408 0
405 -407 -408 0
-406 298 0
-406 597 0
406 -298 -597 0
-407 409 0
-407 410 0
407 -409 -410 0
-408 295 0
-408 294 0
408 -295 -294 0
-409 293 0
-409 292 0
409 -293 -292 0
-410 290 0
-410 297 0
410 -290 -297 0
411 -433 0
411 -87 0
-411 433 87 0
-412 530 0
-412 535 0
412 -530 -535 0
413 -460 0
413 -85 0
-413 460 85 0
414 -462 0
414 -86 0
-414 462 86 0
415 -418 0
415 -83 0
-415 418 83 0
416 -460 0
416 -84 0
-416 460 84 0
417 -419 0
417 -90 0
-417 419 90 0
-418 417 0
-418 420 0
418 -417 -420 0
419 -412 0
419 -88 0
-419 412 88 0
420 -419 0
420 -89 0
-420 419 89 0
421 -515 0
421 -187 0
-421 515 187 0
422 -515 0
422 -184 0
-422 515 184 0
423 -525 0
423 -183 0
-423 525 183 0
424 -525 0
424 -186 0
-424 525 186 0
425 -431 0
425 -44 0
-425 431 44 0
-550 424 0
-550 423 0
550 -424 -423 0
427 -526 0
427 -185 0
-427 526 185 0
428 -526 0
428 -180 0
-428 526 180 0
-429 432 0
-429 425 0
429 -432 -425 0
430 -429 0
430 -49 0
-430 429 49 0
431 -412 0
431 -46 0
-431 412 46 0
432 -431 0
432 -47 0
-432 431 47 0
-433 258 0
-433 259 0
433 -258 -259 0
434 -433 0
434 -82 0
-434 433 82 0
435 -433 0
435 -81 0
-435 433 81 0
562 -429 0
562 -48 0
-562 429 48 0
437 -568 0
437 -51 0
-437 568 51 0
438 -568 0
438 -176 0
-438 568 176 0
-439 448 0
-439 447 0
439 -448 -447 0
-440 438 0
-440 437 0
440 -438 -437 0
-441 324 0
-441 325 0
441 -324 -325 0
-442 440 0
-442 439 0
442 -440 -439 0
-443 326 0
-443 327 0
443 -326 -327 0
-444 442 0
-444 441 0
444 -442 -441 0
445 -493 0
445 -69 0
-445 493 69 0
446 -493 0
446 -41 0
-446 493 41 0
447 -567 0
447 -53 0
-447 567 53 0
448 -567 0
448 -50 0
-448 567 50 0
449 -520 0
449 -202 0
-449 520 202 0
520 -513 0
520 -201 0
-520 513 201 0
-451 254 0
-451 255 0
451 -254 -255 0
-452 524 0
-452 523 0
452 -524 -523 0
-453 454 0
-453 455 0
453 -454 -455 0
454 -163 0
454 -162 0
-454 163 162 0
455 -163 0
455 -165 0
-455 163 165 0
456 -457 0
456 -164 0
-456 457 164 0
-457 303 0
-457 300 0
457 -303 -300 0
458 -457 0
458 -159 0
-458 457 159 0
459 -457 0
459 -158 0
-459 457 158 0
460 -461 0
460 -161 0
-460 461 161 0
-461 554 0
-461 553 0
461 -554 -553 0
462 -461 0
462 -160 0
-462 461 160 0
463 -368 0
463 -32 0
-463 368 32 0
464 -463 0
464 -39 0
-464 463 39 0
465 -381 0
465 -198 0
-465 381 198 0
466 -381 0
466 -191 0
-466 381 191 0
-467 472 0
-467 471 0
467 -472 -471 0
-468 466 0
-468 465 0
468 -466 -465 0
469 -463 0
469 -38 0
-469 463 38 0
-470 469 0
-470 464 0
470 -469 -464 0
471 -379 0
471 -36 0
-471 379 36 0
472 -379 0
472 -197 0
-472 379 197 0
473 -351 0
473 -192 0
-473 351 192 0
474 -351 0
474 -189 0
-474 351 189 0
475 -354 0
475 -194 0
-475 354 194 0
476 -354 0
476 -92 0
-476 354 92 0
-477 482 0
-477 481 0
477 -482 -481 0
-478 476 0
-478 475 0
478 -476 -475 0
479 -349 0
479 -190 0
-479 349 190 0
480 -349 0
480 -195 0
-480 349 195 0
481 -355 0
481 -196 0
-481 355 196 0
482 -355 0
482 -193 0
-482 355 193 0
483 -531 0
483 -101 0
-483 531 101 0
484 -271 0
484 -102 0
-484 271 102 0
485 -271 0
485 -107 0
-485 271 107 0
-486 487 0
-486 488 0
486 -487 -488 0
487 -489 0
487 -105 0
-487 489 105 0
488 -489 0
488 -29 0
-488 489 29 0
489 -490 0
489 -151 0
-489 490 151 0
-490 436 0
-490 552 0
-490 346 0
490 -436 -552 -346 0
-491 590 0
-491 587 0
491 -590 -587 0
492 -585 0
492 -153 0
-492 585 153 0
493 -502 0
493 -118 0
-493 502 118 0
494 -496 0
494 -142 0
-494 496 142 0
495 -496 0
495 -145 0
-495 496 145 0
-496 363 0
-496 362 0
496 -363 -362 0
497 -496 0
497 -40 0
-497 496 40 0
498 -140 0
498 -154 0
-498 140 154 0
499 -140 0
499 -141 0
-499 140 141 0
-500 499 0
-500 498 0
500 -499 -498 0
501 -502 0
501 -157 0
-501 502 157 0
-502 266 0
-502 267 0
502 -266 -267 0
503 -506 0
503 -207 0
-503 506 207 0
504 -506 0
504 -230 0
-504 506 230 0
505 -511 0
505 -206 0
-505 511 206 0
506 -491 0
506 -123 0
-506 491 123 0
507 -509 0
507 -224 0
-507 509 224 0
508 -491 0
508 -150 0
-508 491 150 0
509 -491 0
509 -80 0
-509 491 80 0
510 -509 0
510 -229 0
-510 509 229 0
511 -486 0
511 -108 0
-511 486 108 0
512 -511 0
512 -205 0
-512 511 205 0
-513 242 0
-513 436 0
513 -242 -436 0
-514 550 0
-514 549 0
514 -550 -549 0
515 -516 0
515 -181 0
-515 516 181 0
-516 428 0
-516 427 0
516 -428 -427 0
-517 518 0
-517 449 0
517 -518 -449 0
518 -520 0
518 -203 0
-518 520 203 0
519 -434 0
519 -122 0
-519 434 122 0
450 -434 0
450 -79 0
-450 434 79 0
521 -435 0
521 -78 0
-521 435 78 0
522 -435 0
522 -45 0
-522 435 45 0
-523 450 0
-523 519 0
523 -450 -519 0
-524 522 0
-524 521 0
524 -522 -521 0
525 -516 0
525 -182 0
-525 516 182 0
526 -513 0
526 -179 0
-526 513 179 0
-527 252 0
-527 253 0
527 -252 -253 0
-528 452 0
-528 451 0
528 -452 -451 0
529 -234 0
529 -232 0
-529 234 232 0
-530 536 0
-530 533 0
530 -536 -533 0
531 -270 0
531 -219 0
-531 270 219 0
532 -234 0
532 -233 0
-532 234 233 0
-533 573 0
-533 580 0
533 -573 -580 0
-534 538 0
-534 576 0
534 -538 -576 0
-535 579 0
-535 578 0
535 -579 -578 0
-536 534 0
-536 537 0
536 -534 -537 0
-537 575 0
-537 574 0
537 -575 -574 0
538 -274 0
538 -231 0
-538 274 231 0
-539 543 0
-539 546 0
539 -543 -546 0
-540 542 0
-540 541 0
540 -542 -541 0
541 -544 0
541 -6 0
-541 544 6 0
542 -544 0
542 -125 0
-542 544 125 0
543 -545 0
543 -5 0
-543 545 5 0
544 -331 0
544 -134 0
-544 331 134 0
545 -331 0
545 -137 0
-545 331 137 0
546 -545 0
546 -8 0
-546 545 8 0
547 -401 0
547 -10 0
-547 401 10 0
548 -401 0
548 -7 0
-548 401 7 0
-549 422 0
-549 421 0
549 -422 -421 0
-426 528 0
-426 527 0
426 -528 -527 0
-551 557 0
-551 556 0
551 -557 -556 0
-552 551 0
-552 558 0
552 -551 -558 0
553 -199 0
553 -124 0
-553 199 124 0
554 -199 0
554 -156 0
-554 199 156 0
-555 559 0
-555 308 0
555 -559 -308 0
-556 307 0
-556 304 0
556 -307 -304 0
-557 555 0
-557 560 0
557 -555 -560 0
-558 305 0
-558 302 0
558 -305 -302 0
559 -459 0
559 -220 0
-559 459 220 0
-560 309 0
-560 306 0
560 -309 -306 0
561 -453 0
561 -188 0
-561 453 188 0
-436 385 0
-436 386 0
436 -385 -386 0
563 -566 0
563 -24 0
-563 566 24 0
564 -318 0
564 -177 0
-564 318 177 0
565 -566 0
565 -23 0
-565 566 23 0
-566 571 0
-566 572 0
566 -571 -572 0
567 -570 0
567 -25 0
-567 570 25 0
568 -570 0
568 -26 0
-568 570 26 0
569 -570 0
569 -28 0
-569 570 28 0
-570 320 0
-570 321 0
570 -320 -321 0
571 -564 0
571 -178 0
-571 564 178 0
572 -564 0
572 -2 0
-572 564 2 0
573 -273 0
573 -235 0
-573 273 235 0
574 -275 0
574 -236 0
-574 275 236 0
575 -275 0
575 -237 0
-575 275 237 0
576 -274 0
576 -238 0
-576 274 238 0
-577 581 0
-577 483 0
577 -581 -483 0
578 -277 0
578 -117 0
-578 277 117 0
579 -277 0
579 -239 0
-579 277 239 0
580 -273 0
580 -240 0
-580 273 240 0
581 -531 0
581 -121 0
-581 531 121 0
-582 484 0
-582 485 0
582 -484 -485 0
583 -490 0
583 -147 0
-583 490 147 0
584 -583 0
584 -146 0
-584 583 146 0
-585 584 0
-585 589 0
585 -584 -589 0
586 -585 0
586 -152 0
-586 585 152 0
-587 592 0
-587 333 0
587 -592 -333 0
588 -586 0
588 -148 0
-588 586 148 0
589 -583 0
589 -149 0
-589 583 149 0
-590 588 0
-590 591 0
590 -588 -591 0
591 -586 0
591 -144 0
-591 586 144 0
592 -492 0
592 -143 0
-592 492 143 0
593 -508 0
593 -222 0
-593 508 222 0
594 -508 0
594 -223 0
-594 508 223 0
-595 601 0
-595 602 0
595 -601 -602 0
-596 505 0
-596 512 0
596 -505 -512 0
597 -598 0
597 -221 0
-597 598 221 0
598 -470 0
598 -37 0
-598 470 37 0
-599 593 0
-599 594 0
599 -593 -594 0
-600 507 0
-600 510 0
600 -507 -510 0
-601 599 0
-601 600 0
601 -599 -600 0
-602 504 0
-602 503 0
602 -504 -503 0
